tsp_instances/TSP50/instance118.tsp
NODE_COORD_SECTION
0 7 132
1 54 71
2 125 147
3 17 46
4 93 102
5 64 129
6 183 0
7 83 39
8 70 115
9 38 126
10 27 44
11 40 96
12 24 25
13 81 66
14 133 156
15 130 137
16 182 173
17 125 71
18 132 10
19 146 134
20 54 52
21 90 17
22 145 161
23 140 145
24 68 131
25 96 65
26 42 163
27 174 153
28 7 132
29 29 58
30 10 80
31 169 149
32 145 142
33 97 147
34 85 64
35 138 26
36 7 68
37 62 100
38 47 95
39 139 58
40 118 60
41 52 76
42 87 171
43 55 121
44 70 130
45 197 95
46 48 125
47 62 41
48 39 90
49 96 38
