tsp_instances/TSP50/instance118.opt.tour
TOUR_SECTION
1
10
47
44
6
25
45
9
5
38
39
12
49
31
37
4
13
11
30
42
2
21
48
8
22
50
35
14
26
41
18
40
36
19
7
46
32
28
17
23
15
24
33
20
16
3
34
43
27
29
-1